1 3 100 676517.80
1 3 200 695877.24
1 3 300 722308.68
2 3 100 1017820.38
2 3 200 959712.29
2 3 300 1053330.01
3 3 100 1044543.90
3 3 200 1044139.66
3 3 300 1028417.98
4 3 100 1003062.23
4 3 200 1008772.25
4 3 300 1042280.99
5 3 100 1032112.39
5 3 200 993215.25
5 3 300 940923.53
